dados/results/inst_10/inst_10.mps
* Problem:    Caixeiro viajante com deadline
* Class:      MIP
* Rows:       107
* Columns:    120 (100 integer, 100 binary)
* Non-zeros:  389
* Format:     Free MPS
*
NAME Caixeiro_viajante_com_deadline
ROWS
 N R0000000
 E R1
 E R2
 E R3
 E R4
 E R5
 E R6
 E R7
 E R8
 E R9
 E R10
 E R11
 E R12
 E R13
 E R14
 E R15
 E R16
 E R17
 E R18
 G R19
 G R20
 G R21
 G R22
 G R23
 G R24
 G R25
 G R26
 G R27
 G R28
 G R29
 G R30
 G R31
 G R32
 G R33
 G R34
 G R35
 G R36
 G R37
 G R38
 G R39
 G R40
 G R41
 G R42
 G R43
 G R44
 G R45
 G R46
 G R47
 G R48
 G R49
 G R50
 G R51
 G R52
 G R53
 G R54
 G R55
 G R56
 G R57
 G R58
 G R59
 G R60
 G R61
 G R62
 G R63
 G R64
 G R65
 G R66
 G R67
 G R68
 G R69
 G R70
 G R71
 G R72
 G R73
 G R74
 G R75
 G R76
 G R77
 G R78
 G R79
 G R80
 G R81
 G R82
 G R83
 G R84
 G R85
 G R86
 G R87
 G R88
 G R89
 G R90
 G R91
 G R92
 G R93
 G R94
 G R95
 G R96
 G R97
 G R98
 G R99
 G R100
 G R101
 G R102
 G R103
 G R104
 G R105
 G R106
 G R107
COLUMNS
 M0000001 'MARKER' 'INTORG'
 x[0,0] R1 0 $ empty column
 x[0,1] R10 1 R1 1
 x[0,1] R19 -2861.542776
 x[0,2] R11 1 R20 -2853.88528
 x[0,2] R1 1
 x[0,3] R12 1 R21 -2862.568542
 x[0,3] R1 1
 x[0,4] R13 1 R22 -2880.330344
 x[0,4] R1 1
 x[0,5] R14 1 R23 -2878.124892
 x[0,5] R1 1
 x[0,6] R15 1 R24 -2861.946403
 x[0,6] R1 1
 x[0,7] R16 1 R25 -2872.760767
 x[0,7] R1 1
 x[0,8] R26 -2828.472205 R1 1
 x[0,8] R17 1
 x[0,9] R27 -2806 R18 1
 x[0,9] R1 1
 x[1,0] R1 0 $ empty column
 x[1,1] R28 -2815
 x[1,2] R29 -2824.055385 R2 1
 x[1,2] R11 1
 x[1,3] R30 -2925.113578 R2 1
 x[1,3] R12 1
 x[1,4] R31 -2887.111026 R13 1
 x[1,4] R2 1
 x[1,5] R32 -2931.038787 R14 1
 x[1,5] R2 1
 x[1,6] R33 -2893.185676 R15 1
 x[1,6] R2 1
 x[1,7] R16 1 R2 1
 x[1,7] R34 -2906.760558
 x[1,8] R35 -2885.710678 R2 1
 x[1,8] R17 1
 x[1,9] R18 1 R36 -2870.542776
 x[1,9] R2 1
 x[2,0] R1 0 $ empty column
 x[2,1] R37 -2822.055385 R3 1
 x[2,1] R10 1
 x[2,2] R38 -2813
 x[2,3] R39 -2916.406963 R3 1
 x[2,3] R12 1
 x[2,4] R3 1 R13 1
 x[2,4] R40 -2887.1485
 x[2,5] R14 1 R3 1
 x[2,5] R41 -2924.503363
 x[2,6] R15 1 R42 -2889.400262
 x[2,6] R3 1
 x[2,7] R16 1 R43 -2902.988888
 x[2,7] R3 1
 x[2,8] R44 -2874.983869 R3 1
 x[2,8] R17 1
 x[2,9] R45 -2860.88528 R18 1
 x[2,9] R3 1
 x[3,0] R1 0 $ empty column
 x[3,1] R4 1 R10 1
 x[3,1] R46 -2924.113578
 x[3,2] R4 1 R11 1
 x[3,2] R47 -2917.406963
 x[3,3] R48 -2814
 x[3,4] R4 1 R13 1
 x[3,4] R49 -2909.524866
 x[3,5] R4 1 R14 1
 x[3,5] R50 -2848.669872
 x[3,6] R15 1 R4 1
 x[3,6] R51 -2877.953108
 x[3,7] R16 1 R4 1
 x[3,7] R52 -2877.694584
 x[3,8] R4 1 R53 -2870.0803
 x[3,8] R17 1
 x[3,9] R4 1 R18 1
 x[3,9] R54 -2870.568542
 x[4,0] R1 0 $ empty column
 x[4,1] R5 1 R10 1
 x[4,1] R55 -2898.111026
 x[4,2] R5 1 R11 1
 x[4,2] R56 -2900.1485
 x[4,3] R5 1 R12 1
 x[4,3] R57 -2921.524866
 x[4,4] R58 -2826
 x[4,5] R5 1 R14 1
 x[4,5] R59 -2904.339007
 x[4,6] R5 1 R15 1
 x[4,6] R60 -2858.015621
 x[4,7] R16 1 R5 1
 x[4,7] R61 -2864.626416
 x[4,8] R5 1 R62 -2922.540147
 x[4,8] R17 1
 x[4,9] R5 1 R18 1
 x[4,9] R63 -2900.330344
 x[5,0] R1 0 $ empty column
 x[5,1] R10 1 R64 -2933.038787
 x[5,1] R6 1
 x[5,2] R11 1 R65 -2928.503363
 x[5,2] R6 1
 x[5,3] R12 1 R66 -2851.669872
 x[5,3] R6 1
 x[5,4] R13 1 R67 -2895.339007
 x[5,4] R6 1
 x[5,5] R68 -2817
 x[5,6] R15 1 R69 -2864.539457
 x[5,6] R6 1
 x[5,7] R16 1 R70 -2857.311289
 x[5,7] R6 1
 x[5,8] R71 -2898.024688 R17 1
 x[5,8] R6 1
 x[5,9] R18 1 R72 -2889.124892
 x[5,9] R6 1
 x[6,0] R1 0 $ empty column
 x[6,1] R73 -2901.185676 R10 1
 x[6,1] R7 1
 x[6,2] R74 -2899.400262 R11 1
 x[6,2] R7 1
 x[6,3] R12 1 R75 -2886.953108
 x[6,3] R7 1
 x[6,4] R13 1 R76 -2855.015621
 x[6,4] R7 1
 x[6,5] R14 1 R77 -2870.539457
 x[6,5] R7 1
 x[6,6] R78 -2823
 x[6,7] R16 1 R79 -2836.601471
 x[6,7] R7 1
 x[6,8] R80 -2898.716577 R7 1
 x[6,8] R17 1
 x[6,9] R18 1 R81 -2878.946403
 x[6,9] R7 1
 x[7,0] R1 0 $ empty column
 x[7,1] R82 -2903.760558 R10 1
 x[7,1] R8 1
 x[7,2] R83 -2901.988888 R11 1
 x[7,2] R8 1
 x[7,3] R84 -2875.694584 R12 1
 x[7,3] R8 1
 x[7,4] R85 -2850.626416 R13 1
 x[7,4] R8 1
 x[7,5] R86 -2852.311289 R14 1
 x[7,5] R8 1
 x[7,6] R15 1 R87 -2825.601471
 x[7,6] R8 1
 x[7,7] R88 -2812
 x[7,8] R89 -2896.970583 R8 1
 x[7,8] R17 1
 x[7,9] R18 1 R90 -2878.760767
 x[7,9] R8 1
 x[8,0] R1 0 $ empty column
 x[8,1] R91 -2883.710678 R10 1
 x[8,1] R9 1
 x[8,2] R92 -2874.983869 R11 1
 x[8,2] R9 1
 x[8,3] R12 1 R9 1
 x[8,3] R93 -2869.0803
 x[8,4] R13 1 R9 1
 x[8,4] R94 -2909.540147
 x[8,5] R14 1 R9 1
 x[8,5] R95 -2894.024688
 x[8,6] R15 1 R9 1
 x[8,6] R96 -2888.716577
 x[8,7] R16 1 R97 -2897.970583
 x[8,7] R9 1
 x[8,8] R98 -2813
 x[8,9] R18 1 R9 1
 x[8,9] R99 -2835.472205
 x[9,0] R1 0 $ empty column
 x[9,1] R1 0 $ empty column
 x[9,2] R1 0 $ empty column
 x[9,3] R1 0 $ empty column
 x[9,4] R1 0 $ empty column
 x[9,5] R1 0 $ empty column
 x[9,6] R1 0 $ empty column
 x[9,7] R1 0 $ empty column
 x[9,8] R1 0 $ empty column
 x[9,9] R1 0 $ empty column
 M0000002 'MARKER' 'INTEND'
 phi[0] R27 -1 R26 -1
 phi[0] R25 -1 R24 -1
 phi[0] R23 -1 R22 -1
 phi[0] R21 -1 R20 -1
 phi[0] R19 -1
 phi[1] R32 -1 R33 -1
 phi[1] R91 1 R73 1
 phi[1] R37 1 R31 -1
 phi[1] R36 -1 R30 -1
 phi[1] R35 -1 R29 -1
 phi[1] R82 1 R34 -1
 phi[1] R55 1 R19 1
 phi[1] R64 1 R46 1
 phi[1] R100 -1
 phi[2] R45 -1 R92 1
 phi[2] R74 1 R44 -1
 phi[2] R39 -1 R43 -1
 phi[2] R37 -1 R42 -1
 phi[2] R83 1 R41 -1
 phi[2] R29 1 R40 -1
 phi[2] R56 1 R20 1
 phi[2] R65 1 R47 1
 phi[2] R101 -1
 phi[3] R39 1 R84 1
 phi[3] R30 1 R75 1
 phi[3] R21 1 R50 -1
 phi[3] R49 -1 R66 1
 phi[3] R54 -1 R53 -1
 phi[3] R47 -1 R102 -1
 phi[3] R52 -1 R46 -1
 phi[3] R93 1 R57 1
 phi[3] R51 -1
 phi[4] R85 1 R31 1
 phi[4] R76 1 R40 1
 phi[4] R22 1 R62 -1
 phi[4] R56 -1 R67 1
 phi[4] R61 -1 R55 -1
 phi[4] R49 1 R60 -1
 phi[4] R59 -1 R103 -1
 phi[4] R94 1 R63 -1
 phi[4] R57 -1
 phi[5] R86 1 R32 1
 phi[5] R72 -1 R77 1
 phi[5] R71 -1 R41 1
 phi[5] R23 1 R70 -1
 phi[5] R69 -1 R50 1
 phi[5] R67 -1 R66 -1
 phi[5] R104 -1 R95 1
 phi[5] R65 -1 R59 1
 phi[5] R64 -1
 phi[6] R80 -1 R74 -1
 phi[6] R33 1 R79 -1
 phi[6] R73 -1 R42 1
 phi[6] R24 1 R77 -1
 phi[6] R76 -1 R87 1
 phi[6] R81 -1 R75 -1
 phi[6] R69 1 R96 1
 phi[6] R60 1 R105 -1
 phi[6] R51 1
 phi[7] R86 -1 R85 -1
 phi[7] R79 1 R43 1
 phi[7] R25 1 R90 -1
 phi[7] R84 -1 R89 -1
 phi[7] R83 -1 R82 -1
 phi[7] R70 1 R34 1
 phi[7] R87 -1 R97 1
 phi[7] R61 1 R106 -1
 phi[7] R52 1
 phi[8] R92 -1 R80 1
 phi[8] R44 1 R26 1
 phi[8] R91 -1 R89 1
 phi[8] R71 1 R35 1
 phi[8] R62 1 R97 -1
 phi[8] R107 -1 R96 -1
 phi[8] R95 -1 R53 1
 phi[8] R94 -1 R99 -1
 phi[8] R93 -1
 phi[9] R27 1 R45 1
 phi[9] R90 1 R72 1
 phi[9] R36 1 R81 1
 phi[9] R54 1 R99 1
 phi[9] R63 1
 w[0] R0000000 1
 w[1] R0000000 1 R100 1
 w[2] R0000000 1 R101 1
 w[3] R0000000 1 R102 1
 w[4] R0000000 1 R103 1
 w[5] R0000000 1 R104 1
 w[6] R0000000 1 R105 1
 w[7] R0000000 1 R106 1
 w[8] R0000000 1 R107 1
 w[9] R1 0 $ empty column
RHS
 RHS1 R1 1 R2 1
 RHS1 R3 1 R4 1
 RHS1 R5 1 R6 1
 RHS1 R7 1 R8 1
 RHS1 R9 1 R10 1
 RHS1 R11 1 R12 1
 RHS1 R13 1 R14 1
 RHS1 R15 1 R16 1
 RHS1 R17 1 R18 1
 RHS1 R19 -2806 R20 -2806
 RHS1 R21 -2806 R22 -2806
 RHS1 R23 -2806 R24 -2806
 RHS1 R25 -2806 R26 -2806
 RHS1 R27 -2806 R28 -2806
 RHS1 R29 -2806 R30 -2806
 RHS1 R31 -2806 R32 -2806
 RHS1 R33 -2806 R34 -2806
 RHS1 R35 -2806 R36 -2806
 RHS1 R37 -2806 R38 -2806
 RHS1 R39 -2806 R40 -2806
 RHS1 R41 -2806 R42 -2806
 RHS1 R43 -2806 R44 -2806
 RHS1 R45 -2806 R46 -2806
 RHS1 R47 -2806 R48 -2806
 RHS1 R49 -2806 R50 -2806
 RHS1 R51 -2806 R52 -2806
 RHS1 R53 -2806 R54 -2806
 RHS1 R55 -2806 R56 -2806
 RHS1 R57 -2806 R58 -2806
 RHS1 R59 -2806 R60 -2806
 RHS1 R61 -2806 R62 -2806
 RHS1 R63 -2806 R64 -2806
 RHS1 R65 -2806 R66 -2806
 RHS1 R67 -2806 R68 -2806
 RHS1 R69 -2806 R70 -2806
 RHS1 R71 -2806 R72 -2806
 RHS1 R73 -2806 R74 -2806
 RHS1 R75 -2806 R76 -2806
 RHS1 R77 -2806 R78 -2806
 RHS1 R79 -2806 R80 -2806
 RHS1 R81 -2806 R82 -2806
 RHS1 R83 -2806 R84 -2806
 RHS1 R85 -2806 R86 -2806
 RHS1 R87 -2806 R88 -2806
 RHS1 R89 -2806 R90 -2806
 RHS1 R91 -2806 R92 -2806
 RHS1 R93 -2806 R94 -2806
 RHS1 R95 -2806 R96 -2806
 RHS1 R97 -2806 R98 -2806
 RHS1 R99 -2806 R100 -430
 RHS1 R101 -17 R102 -449
 RHS1 R103 -490 R104 -428
 RHS1 R105 -535 R106 -28
 RHS1 R107 -419
BOUNDS
 UP BND1 x[0,0] 1
 UP BND1 x[0,1] 1
 UP BND1 x[0,2] 1
 UP BND1 x[0,3] 1
 UP BND1 x[0,4] 1
 UP BND1 x[0,5] 1
 UP BND1 x[0,6] 1
 UP BND1 x[0,7] 1
 UP BND1 x[0,8] 1
 UP BND1 x[0,9] 1
 UP BND1 x[1,0] 1
 UP BND1 x[1,1] 1
 UP BND1 x[1,2] 1
 UP BND1 x[1,3] 1
 UP BND1 x[1,4] 1
 UP BND1 x[1,5] 1
 UP BND1 x[1,6] 1
 UP BND1 x[1,7] 1
 UP BND1 x[1,8] 1
 UP BND1 x[1,9] 1
 UP BND1 x[2,0] 1
 UP BND1 x[2,1] 1
 UP BND1 x[2,2] 1
 UP BND1 x[2,3] 1
 UP BND1 x[2,4] 1
 UP BND1 x[2,5] 1
 UP BND1 x[2,6] 1
 UP BND1 x[2,7] 1
 UP BND1 x[2,8] 1
 UP BND1 x[2,9] 1
 UP BND1 x[3,0] 1
 UP BND1 x[3,1] 1
 UP BND1 x[3,2] 1
 UP BND1 x[3,3] 1
 UP BND1 x[3,4] 1
 UP BND1 x[3,5] 1
 UP BND1 x[3,6] 1
 UP BND1 x[3,7] 1
 UP BND1 x[3,8] 1
 UP BND1 x[3,9] 1
 UP BND1 x[4,0] 1
 UP BND1 x[4,1] 1
 UP BND1 x[4,2] 1
 UP BND1 x[4,3] 1
 UP BND1 x[4,4] 1
 UP BND1 x[4,5] 1
 UP BND1 x[4,6] 1
 UP BND1 x[4,7] 1
 UP BND1 x[4,8] 1
 UP BND1 x[4,9] 1
 UP BND1 x[5,0] 1
 UP BND1 x[5,1] 1
 UP BND1 x[5,2] 1
 UP BND1 x[5,3] 1
 UP BND1 x[5,4] 1
 UP BND1 x[5,5] 1
 UP BND1 x[5,6] 1
 UP BND1 x[5,7] 1
 UP BND1 x[5,8] 1
 UP BND1 x[5,9] 1
 UP BND1 x[6,0] 1
 UP BND1 x[6,1] 1
 UP BND1 x[6,2] 1
 UP BND1 x[6,3] 1
 UP BND1 x[6,4] 1
 UP BND1 x[6,5] 1
 UP BND1 x[6,6] 1
 UP BND1 x[6,7] 1
 UP BND1 x[6,8] 1
 UP BND1 x[6,9] 1
 UP BND1 x[7,0] 1
 UP BND1 x[7,1] 1
 UP BND1 x[7,2] 1
 UP BND1 x[7,3] 1
 UP BND1 x[7,4] 1
 UP BND1 x[7,5] 1
 UP BND1 x[7,6] 1
 UP BND1 x[7,7] 1
 UP BND1 x[7,8] 1
 UP BND1 x[7,9] 1
 UP BND1 x[8,0] 1
 UP BND1 x[8,1] 1
 UP BND1 x[8,2] 1
 UP BND1 x[8,3] 1
 UP BND1 x[8,4] 1
 UP BND1 x[8,5] 1
 UP BND1 x[8,6] 1
 UP BND1 x[8,7] 1
 UP BND1 x[8,8] 1
 UP BND1 x[8,9] 1
 UP BND1 x[9,0] 1
 UP BND1 x[9,1] 1
 UP BND1 x[9,2] 1
 UP BND1 x[9,3] 1
 UP BND1 x[9,4] 1
 UP BND1 x[9,5] 1
 UP BND1 x[9,6] 1
 UP BND1 x[9,7] 1
 UP BND1 x[9,8] 1
 UP BND1 x[9,9] 1
ENDATA
